p cnf 10 45
-1 -2 -8 0
-9 7 1 0
-1 8 5 0
5 9 -1 0
3 7 2 0
9 8 7 0
-2 3 -9 0
-10 3 1 0
-4 7 5 0
-7 6 5 0
1 7 -2 0
-9 -10 5 0
5 -8 -4 0
1 -10 3 0
5 -7 -1 0
-10 5 -2 0
4 -2 8 0
-10 -9 6 0
7 -10 -3 0
-6 7 -4 0
-4 -9 5 0
-1 5 -10 0
-6 -2 -10 0
6 3 8 0
6 2 -9 0
3 -10 -1 0
3 -10 6 0
-1 8 5 0
8 -9 7 0
5 8 6 0
5 6 -2 0
-10 5 4 0
-10 -7 8 0
-4 -1 -9 0
-2 4 -8 0
6 3 -2 0
3 -2 7 0
8 6 -10 0
8 3 -4 0
5 -4 1 0
-9 -10 3 0
8 6 -2 0
6 4 -9 0
-7 6 8 0
7 6 1 0
%
0